Route #1: 36 40 10 22 5 27 35
Route #2: 13 3 19 14 33 9 39 21 17 8 41
Route #3: 26 2 38 31 6 23
Route #4: 7 29 4 12 44 42 45
Route #5: 18 24 43 16 11
Route #6: 25 30 32 34 15
Route #7: 37 20 28
cost 1288
